0 0 0 0
0 1 0 0
0 2 2 0
0 3 1 0
0 4 0 1
0 5 2 4
0 6 2 4
0 7 2 11
0 8 2 1
0 9 2 10
0 10 2 1
0 11 0 9
0 12 2 10
0 13 1 10
0 14 1 16
0 15 1 12
0 16 1 18
0 17 2 12
0 18 0 18
0 19 0 24
0 20 2 28
0 21 2 18
0 22 2 19
0 23 2 19
0 24 1 28
0 25 2 28
0 26 0 28
0 27 2 24
0 28 1 31
0 29 1 36
0 30 0 34
0 31 0 37
